# Solution for model micodag
# Objective value = 6.6946151858414868e+00
s_0_1 0
s_1_0 0
s_1_3 0
s_3_1 0
s_1_4 0
s_4_1 2.9350904087357543e-01
s_2_3 0
s_3_2 1.6298218321818414e-01
s_2_5 7.5284839709595053e-01
s_5_2 0
s_3_4 0
s_4_3 4.6770018421376980e-01
s_4_5 0
s_5_4 0
s_4_6 0
s_6_4 7.7328870516115078e-01
s_4_7 0
s_7_4 0.817425469789085
s_5_6 0
s_6_5 1.1148025022992534e+00
s_0_0 9.4867979693788751e-01
s_1_1 7.4853896346486648e-01
s_2_2 3.3230235706463116e+00
s_3_3 5.8037635999223136e-01
s_4_4 7.1387914601456481e-01
s_5_5 1.3044222759024122e+00
s_6_6 1.9505205034751483e+00
s_7_7 2.0865632475582512e+00
Gamma_0_0 9.7400194914480953e-01
Gamma_0_1 0
Gamma_0_2 0
Gamma_0_3 0
Gamma_0_4 0
Gamma_0_5 0
Gamma_0_6 0
Gamma_0_7 0
Gamma_1_0 0
Gamma_1_1 0.865181462737654
Gamma_1_2 0
Gamma_1_3 0
Gamma_1_4 0
Gamma_1_5 0
Gamma_1_6 0
Gamma_1_7 0
Gamma_2_0 0
Gamma_2_1 0
Gamma_2_2 1.8229162269962687e+00
Gamma_2_3 0
Gamma_2_4 0
Gamma_2_5 -8.6766836815453374e-01
Gamma_2_6 0
Gamma_2_7 0
Gamma_3_0 0
Gamma_3_1 0
Gamma_3_2 4.0371051908290084e-01
Gamma_3_3 7.6182436295528866e-01
Gamma_3_4 0
Gamma_3_5 0
Gamma_3_6 0
Gamma_3_7 0
Gamma_4_0 0
Gamma_4_1 -5.4176474679843867e-01
Gamma_4_2 0
Gamma_4_3 6.8388609008647816e-01
Gamma_4_4 8.4491369145881745e-01
Gamma_4_5 0
Gamma_4_6 0
Gamma_4_7 0
Gamma_5_0 0
Gamma_5_1 0
Gamma_5_2 0
Gamma_5_3 0
Gamma_5_4 0
Gamma_5_5 1.1421130749196478e+00
Gamma_5_6 0
Gamma_5_7 0
Gamma_6_0 0
Gamma_6_1 0
Gamma_6_2 0
Gamma_6_3 0
Gamma_6_4 -8.7936835578792094e-01
Gamma_6_5 1.0558420820838945e+00
Gamma_6_6 1.3966103620821193e+00
Gamma_6_7 0
Gamma_7_0 0
Gamma_7_1 0
Gamma_7_2 0
Gamma_7_3 0
Gamma_7_4 -0.904115849761017
Gamma_7_5 0
Gamma_7_6 0
Gamma_7_7 1.4444941147537609e+00
psi_0 0
psi_1 2
psi_2 3
psi_3 2
psi_4 1
psi_5 4
psi_6 0
psi_7 0
g_0_0 0
g_0_1 0
g_0_2 0
g_0_3 0
g_0_4 0
g_0_5 0
g_0_6 0
g_0_7 0
g_1_0 0
g_1_1 0
g_1_2 0
g_1_3 0
g_1_4 0
g_1_5 0
g_1_6 0
g_1_7 0
g_2_0 0
g_2_1 0
g_2_2 0
g_2_3 0
g_2_4 0
g_2_5 1
g_2_6 0
g_2_7 0
g_3_0 0
g_3_1 0
g_3_2 1
g_3_3 0
g_3_4 0
g_3_5 0
g_3_6 0
g_3_7 0
g_4_0 0
g_4_1 1
g_4_2 0
g_4_3 1
g_4_4 0
g_4_5 0
g_4_6 0
g_4_7 0
g_5_0 0
g_5_1 0
g_5_2 0
g_5_3 0
g_5_4 0
g_5_5 0
g_5_6 0
g_5_7 0
g_6_0 0
g_6_1 0
g_6_2 0
g_6_3 0
g_6_4 1
g_6_5 1
g_6_6 0
g_6_7 0
g_7_0 0
g_7_1 0
g_7_2 0
g_7_3 0
g_7_4 1
g_7_5 0
g_7_6 0
g_7_7 0
T_0 5.2683948332472141e-02
T_1 2.8963202108000985e-01
T_2 -1.2008750825300609e+00
T_3 5.4407848934566516e-01
T_4 3.3704159425411717e-01
T_5 -2.6576024229595419e-01
T_6 -6.6809626181660065e-01
T_7 -7.3551833334262540e-01
